data/mip_solutions/furman_sahinidis/transportation/10sp-ol1_cplex.sol
Elapsed time: 0.0579209327698
Nodes explored: 0
Upper bound: 14.0
Lower bound: 14.0
y[0,0]=1
y[0,3]=1
y[0,6]=1
y[1,0]=1
y[1,4]=1
y[2,1]=1
y[3,0]=1
y[3,1]=1
y[3,2]=1
y[3,4]=1
y[3,5]=1
y[3,6]=1
y[4,0]=1
y[4,4]=1
q[0,0,0,0]=6.02
q[0,0,0,1]=3.48
q[0,0,3,1]=1.2
q[0,1,0,1]=6.0
q[0,2,0,2]=0.4
q[0,2,3,2]=0.6
q[0,3,0,3]=1.6
q[0,3,3,3]=2.4
q[0,4,3,4]=1.2
q[0,4,6,7]=0.8
q[0,5,3,5]=1.2
q[0,5,6,7]=0.8
q[0,6,6,7]=2.5
q[0,7,6,7]=1.5
q[1,1,0,1]=2.52
q[1,1,0,2]=0.48
q[1,1,4,1]=12.0
q[2,1,1,1]=0.98
q[2,1,1,2]=0.22
q[2,2,1,2]=0.2
q[2,3,1,5]=0.8
q[2,4,1,4]=0.4
q[2,5,1,6]=0.4
q[2,6,1,6]=0.2
q[3,2,0,2]=1.12
q[3,2,1,2]=0.28
q[3,2,4,2]=2.0
q[3,3,0,3]=6.4
q[3,3,1,3]=2.8
q[3,3,1,5]=0.025
q[3,3,2,3]=4.375
q[3,4,1,4]=1.0
q[3,4,2,4]=3.5
q[3,4,6,7]=2.3
q[3,5,1,5]=0.575
q[3,5,1,6]=1.15
q[3,5,5,6]=4.5
q[3,5,5,7]=0.575
q[3,6,5,7]=6.925
q[3,6,6,7]=1.575
q[4,0,0,0]=11.98
q[4,0,4,0]=18.0
