data/mip_solutions/furman_sahinidis/transportation/10sp-ol1_cplex.log

Log started (V12.6.3.0) Tue Jun  6 16:47:33 2017

New value for default parallel thread count: 1

Problem '/tmp/tmpc2P87j.pyomo.lp' read.
Read time = 0.00 sec. (0.21 ticks)

Problem name         : /tmp/tmpc2P87j.pyomo.lp
Objective sense      : Minimize
Variables            :    2277  [Nneg: 2241,  Binary: 35,  General Integer: 1]
Objective nonzeros   :       1
Linear constraints   :    1113  [Less: 35,  Equal: 1078]
  Nonzeros           :    7766
  RHS nonzeros       :      45

Variables            : Min LB: 0.000000         Max UB: 1.000000       
Objective nonzeros   : Min   : 1.000000         Max   : 1.000000       
Linear constraints   :
  Nonzeros           : Min   : 1.000000         Max   : 22.68000       
  RHS nonzeros       : Min   : 0.2000000        Max   : 29.98000       
Tried aggregator 2 times.
MIP Presolve eliminated 1041 rows and 2001 columns.
MIP Presolve added 1 rows and 1 columns.
Aggregator did 4 substitutions.
Reduced MIP has 69 rows, 273 columns, and 786 nonzeros.
Reduced MIP has 27 binaries, 1 generals, 0 SOSs, and 0 indicators.
Presolve time = 0.00 sec. (1.99 ticks)
Found incumbent of value 29.000000 after 0.01 sec. (3.06 ticks)
Probing fixed 1 vars, tightened 2 bounds.
Probing time = 0.00 sec. (0.06 ticks)
Tried aggregator 1 time.
MIP Presolve eliminated 0 rows and 1 columns.
Reduced MIP has 69 rows, 272 columns, and 784 nonzeros.
Reduced MIP has 26 binaries, 1 generals, 0 SOSs, and 0 indicators.
Presolve time = 0.00 sec. (0.30 ticks)
Probing time = 0.00 sec. (0.04 ticks)
Clique table members: 7.
MIP emphasis: balance optimality and feasibility.
MIP search method: dynamic search.
Parallel mode: none, using 1 thread.
Root relaxation solution time = 0.00 sec. (0.99 ticks)

        Nodes                                         Cuts/
   Node  Left     Objective  IInf  Best Integer    Best Bound    ItCnt     Gap

*     0+    0                           29.0000        4.0000            86.21%
      0     0       10.6211    14       29.0000       10.6211      141   63.38%
*     0+    0                           18.0000       10.6211            40.99%
      0     0       12.4846    14       18.0000      Cuts: 91      311   30.64%
      0     0       13.2613    15       18.0000      Cuts: 91      471   26.33%
      0     0       13.4853    17       18.0000      Cuts: 98      519   25.08%
      0     0       13.9336    15       18.0000     Cuts: 107      562   22.59%
      0     0       14.0000    14       18.0000      Cuts: 99      611   22.22%
      0     0       14.0000     2       18.0000      Cuts: 65      647   22.22%
*     0+    0                           15.0000       14.0000             6.67%
*     0+    0                           14.0000       14.0000             0.00%
      0     0        cutoff             14.0000       14.0000      647    0.00%
Elapsed time = 0.03 sec. (25.16 ticks, tree = 0.01 MB, solutions = 4)

Cover cuts applied:  7
Implied bound cuts applied:  16
Flow cuts applied:  20
Mixed integer rounding cuts applied:  30
Zero-half cuts applied:  1

Root node processing (before b&c):
  Real time             =    0.03 sec. (25.27 ticks)
Sequential b&c:
  Real time             =    0.00 sec. (0.00 ticks)
                          ------------
Total (root+branch&cut) =    0.03 sec. (25.27 ticks)

Solution pool: 4 solutions saved.

MIP - Integer optimal solution:  Objective =  1.4000000000e+01
Solution time =    0.03 sec.  Iterations = 647  Nodes = 0
Deterministic time = 25.27 ticks  (848.21 ticks/sec)


Incumbent solution written to file '/tmp/tmpolzDJL.cplex.sol'.

Log started (V12.6.3.0) Mon Jul 24 16:46:06 2017

New value for default parallel thread count: 1

Problem '/tmp/tmpYcCLje.pyomo.lp' read.
Read time = 0.00 sec. (0.21 ticks)

Problem name         : /tmp/tmpYcCLje.pyomo.lp
Objective sense      : Minimize
Variables            :    2277  [Nneg: 2241,  Binary: 35,  General Integer: 1]
Objective nonzeros   :       1
Linear constraints   :    1113  [Less: 35,  Equal: 1078]
  Nonzeros           :    7766
  RHS nonzeros       :      45

Variables            : Min LB: 0.000000         Max UB: 1.000000       
Objective nonzeros   : Min   : 1.000000         Max   : 1.000000       
Linear constraints   :
  Nonzeros           : Min   : 1.000000         Max   : 22.68000       
  RHS nonzeros       : Min   : 0.2000000        Max   : 29.98000       
Tried aggregator 2 times.
MIP Presolve eliminated 1041 rows and 2001 columns.
MIP Presolve added 1 rows and 1 columns.
Aggregator did 4 substitutions.
Reduced MIP has 69 rows, 273 columns, and 786 nonzeros.
Reduced MIP has 27 binaries, 1 generals, 0 SOSs, and 0 indicators.
Presolve time = 0.00 sec. (1.99 ticks)
Found incumbent of value 29.000000 after 0.00 sec. (3.06 ticks)
Probing fixed 1 vars, tightened 2 bounds.
Probing time = 0.00 sec. (0.06 ticks)
Tried aggregator 1 time.
MIP Presolve eliminated 0 rows and 1 columns.
Reduced MIP has 69 rows, 272 columns, and 784 nonzeros.
Reduced MIP has 26 binaries, 1 generals, 0 SOSs, and 0 indicators.
Presolve time = 0.00 sec. (0.30 ticks)
Probing time = 0.00 sec. (0.04 ticks)
Clique table members: 7.
MIP emphasis: balance optimality and feasibility.
MIP search method: dynamic search.
Parallel mode: none, using 1 thread.
Root relaxation solution time = 0.00 sec. (0.99 ticks)

        Nodes                                         Cuts/
   Node  Left     Objective  IInf  Best Integer    Best Bound    ItCnt     Gap

*     0+    0                           29.0000        4.0000            86.21%
      0     0       10.6211    14       29.0000       10.6211      141   63.38%
*     0+    0                           18.0000       10.6211            40.99%
      0     0       12.4846    14       18.0000      Cuts: 91      311   30.64%
      0     0       13.2613    15       18.0000      Cuts: 91      471   26.33%
      0     0       13.4853    17       18.0000      Cuts: 98      519   25.08%
      0     0       13.9336    15       18.0000     Cuts: 107      562   22.59%
      0     0       14.0000    14       18.0000      Cuts: 99      611   22.22%
      0     0       14.0000     2       18.0000      Cuts: 65      647   22.22%
*     0+    0                           15.0000       14.0000             6.67%
*     0+    0                           14.0000       14.0000             0.00%
      0     0        cutoff             14.0000       14.0000      647    0.00%
Elapsed time = 0.02 sec. (25.16 ticks, tree = 0.01 MB, solutions = 4)

Cover cuts applied:  7
Implied bound cuts applied:  16
Flow cuts applied:  20
Mixed integer rounding cuts applied:  30
Zero-half cuts applied:  1

Root node processing (before b&c):
  Real time             =    0.02 sec. (25.27 ticks)
Sequential b&c:
  Real time             =    0.00 sec. (0.00 ticks)
                          ------------
Total (root+branch&cut) =    0.02 sec. (25.27 ticks)

Solution pool: 4 solutions saved.

MIP - Integer optimal solution:  Objective =  1.4000000000e+01
Solution time =    0.02 sec.  Iterations = 647  Nodes = 0
Deterministic time = 25.27 ticks  (1017.72 ticks/sec)


Incumbent solution written to file '/tmp/tmp7Wo89v.cplex.sol'.

Log started (V12.6.3.0) Mon Jul 24 16:59:00 2017

New value for default parallel thread count: 1

Problem '/tmp/tmp3JhTD8.pyomo.lp' read.
Read time = 0.00 sec. (0.21 ticks)

Problem name         : /tmp/tmp3JhTD8.pyomo.lp
Objective sense      : Minimize
Variables            :    2277  [Nneg: 2241,  Binary: 35,  General Integer: 1]
Objective nonzeros   :       1
Linear constraints   :    1113  [Less: 35,  Equal: 1078]
  Nonzeros           :    7766
  RHS nonzeros       :      45

Variables            : Min LB: 0.000000         Max UB: 1.000000       
Objective nonzeros   : Min   : 1.000000         Max   : 1.000000       
Linear constraints   :
  Nonzeros           : Min   : 1.000000         Max   : 22.68000       
  RHS nonzeros       : Min   : 0.2000000        Max   : 29.98000       
Tried aggregator 2 times.
MIP Presolve eliminated 1041 rows and 2001 columns.
MIP Presolve added 1 rows and 1 columns.
Aggregator did 4 substitutions.
Reduced MIP has 69 rows, 273 columns, and 786 nonzeros.
Reduced MIP has 27 binaries, 1 generals, 0 SOSs, and 0 indicators.
Presolve time = 0.00 sec. (1.99 ticks)
Found incumbent of value 29.000000 after 0.00 sec. (3.06 ticks)
Probing fixed 1 vars, tightened 2 bounds.
Probing time = 0.00 sec. (0.06 ticks)
Tried aggregator 1 time.
MIP Presolve eliminated 0 rows and 1 columns.
Reduced MIP has 69 rows, 272 columns, and 784 nonzeros.
Reduced MIP has 26 binaries, 1 generals, 0 SOSs, and 0 indicators.
Presolve time = 0.00 sec. (0.30 ticks)
Probing time = 0.00 sec. (0.04 ticks)
Clique table members: 7.
MIP emphasis: balance optimality and feasibility.
MIP search method: dynamic search.
Parallel mode: none, using 1 thread.
Root relaxation solution time = 0.00 sec. (0.99 ticks)

        Nodes                                         Cuts/
   Node  Left     Objective  IInf  Best Integer    Best Bound    ItCnt     Gap

*     0+    0                           29.0000        4.0000            86.21%
      0     0       10.6211    14       29.0000       10.6211      141   63.38%
*     0+    0                           18.0000       10.6211            40.99%
      0     0       12.4846    14       18.0000      Cuts: 91      311   30.64%
      0     0       13.2613    15       18.0000      Cuts: 91      471   26.33%
      0     0       13.4853    17       18.0000      Cuts: 98      519   25.08%
      0     0       13.9336    15       18.0000     Cuts: 107      562   22.59%
      0     0       14.0000    14       18.0000      Cuts: 99      611   22.22%
      0     0       14.0000     2       18.0000      Cuts: 65      647   22.22%
*     0+    0                           15.0000       14.0000             6.67%
*     0+    0                           14.0000       14.0000             0.00%
      0     0        cutoff             14.0000       14.0000      647    0.00%
Elapsed time = 0.02 sec. (25.16 ticks, tree = 0.01 MB, solutions = 4)

Cover cuts applied:  7
Implied bound cuts applied:  16
Flow cuts applied:  20
Mixed integer rounding cuts applied:  30
Zero-half cuts applied:  1

Root node processing (before b&c):
  Real time             =    0.02 sec. (25.27 ticks)
Sequential b&c:
  Real time             =    0.00 sec. (0.00 ticks)
                          ------------
Total (root+branch&cut) =    0.02 sec. (25.27 ticks)

Solution pool: 4 solutions saved.

MIP - Integer optimal solution:  Objective =  1.4000000000e+01
Solution time =    0.02 sec.  Iterations = 647  Nodes = 0
Deterministic time = 25.27 ticks  (1024.74 ticks/sec)


Incumbent solution written to file '/tmp/tmpHvPJlj.cplex.sol'.

Log started (V12.6.3.0) Wed Jul 26 16:03:18 2017

New value for default parallel thread count: 1

Problem '/tmp/tmpz0sbUk.pyomo.lp' read.
Read time = 0.01 sec. (0.21 ticks)

Problem name         : /tmp/tmpz0sbUk.pyomo.lp
Objective sense      : Minimize
Variables            :    2277  [Nneg: 2241,  Binary: 35,  General Integer: 1]
Objective nonzeros   :       1
Linear constraints   :    1113  [Less: 35,  Equal: 1078]
  Nonzeros           :    7766
  RHS nonzeros       :      45

Variables            : Min LB: 0.000000         Max UB: 1.000000       
Objective nonzeros   : Min   : 1.000000         Max   : 1.000000       
Linear constraints   :
  Nonzeros           : Min   : 1.000000         Max   : 22.68000       
  RHS nonzeros       : Min   : 0.2000000        Max   : 29.98000       
Tried aggregator 2 times.
MIP Presolve eliminated 1041 rows and 2001 columns.
MIP Presolve added 1 rows and 1 columns.
Aggregator did 4 substitutions.
Reduced MIP has 69 rows, 273 columns, and 786 nonzeros.
Reduced MIP has 27 binaries, 1 generals, 0 SOSs, and 0 indicators.
Presolve time = 0.00 sec. (1.99 ticks)
Found incumbent of value 29.000000 after 0.00 sec. (3.06 ticks)
Probing fixed 1 vars, tightened 2 bounds.
Probing time = 0.00 sec. (0.06 ticks)
Tried aggregator 1 time.
MIP Presolve eliminated 0 rows and 1 columns.
Reduced MIP has 69 rows, 272 columns, and 784 nonzeros.
Reduced MIP has 26 binaries, 1 generals, 0 SOSs, and 0 indicators.
Presolve time = 0.00 sec. (0.30 ticks)
Probing time = 0.00 sec. (0.04 ticks)
Clique table members: 7.
MIP emphasis: balance optimality and feasibility.
MIP search method: dynamic search.
Parallel mode: none, using 1 thread.
Root relaxation solution time = 0.00 sec. (0.99 ticks)

        Nodes                                         Cuts/
   Node  Left     Objective  IInf  Best Integer    Best Bound    ItCnt     Gap

*     0+    0                           29.0000        4.0000            86.21%
      0     0       10.6211    14       29.0000       10.6211      141   63.38%
*     0+    0                           18.0000       10.6211            40.99%
      0     0       12.4846    14       18.0000      Cuts: 91      311   30.64%
      0     0       13.2613    15       18.0000      Cuts: 91      471   26.33%
      0     0       13.4853    17       18.0000      Cuts: 98      519   25.08%
      0     0       13.9336    15       18.0000     Cuts: 107      562   22.59%
      0     0       14.0000    14       18.0000      Cuts: 99      611   22.22%
      0     0       14.0000     2       18.0000      Cuts: 65      647   22.22%
*     0+    0                           15.0000       14.0000             6.67%
*     0+    0                           14.0000       14.0000             0.00%
      0     0        cutoff             14.0000       14.0000      647    0.00%
Elapsed time = 0.03 sec. (25.16 ticks, tree = 0.01 MB, solutions = 4)

Cover cuts applied:  7
Implied bound cuts applied:  16
Flow cuts applied:  20
Mixed integer rounding cuts applied:  30
Zero-half cuts applied:  1

Root node processing (before b&c):
  Real time             =    0.03 sec. (25.27 ticks)
Sequential b&c:
  Real time             =    0.00 sec. (0.00 ticks)
                          ------------
Total (root+branch&cut) =    0.03 sec. (25.27 ticks)

Solution pool: 4 solutions saved.

MIP - Integer optimal solution:  Objective =  1.4000000000e+01
Solution time =    0.03 sec.  Iterations = 647  Nodes = 0
Deterministic time = 25.27 ticks  (928.41 ticks/sec)


Incumbent solution written to file '/tmp/tmpPa5W7X.cplex.sol'.
